0,202,258,169,218,174,403,164,330,218,349
202,0,52,182,558,460,395,348,155,351,190
258,52,0,250,486,307,393,254,84,314,400
169,182,250,0,334,228,357,517,180,376,503
218,558,486,334,0,490,332,488,76,444,295
174,460,307,228,490,0,232,379,123,153,381
403,395,393,357,332,232,0,178,162,244,534
164,348,254,517,488,379,178,0,303,54,142
330,155,84,180,76,123,162,303,0,225,93
218,351,314,376,444,153,244,54,225,0,499
349,190,400,503,295,381,534,142,93,499,0
